c Reduced graph for r250.1_1 generated by Cyril Grelier
p edge 234 835
e 1 49
e 1 56
e 1 57
e 1 60
e 1 62
e 1 86
e 1 135
e 1 171
e 1 176
e 1 191
e 1 192
e 1 200
e 1 202
e 2 5
e 2 6
e 2 8
e 2 10
e 2 21
e 2 31
e 2 33
e 2 40
e 2 50
e 2 52
e 2 81
e 2 96
e 2 114
e 3 4
e 3 7
e 3 9
e 3 11
e 3 12
e 3 13
e 3 15
e 3 17
e 3 20
e 3 34
e 3 35
e 3 36
e 3 46
e 4 7
e 4 9
e 4 11
e 4 12
e 4 13
e 4 15
e 4 17
e 4 20
e 4 34
e 4 35
e 4 36
e 4 46
e 5 6
e 5 8
e 5 10
e 5 21
e 5 31
e 5 33
e 5 40
e 5 52
e 5 81
e 5 96
e 5 114
e 5 122
e 6 8
e 6 21
e 6 31
e 6 40
e 6 50
e 6 53
e 6 81
e 6 83
e 6 96
e 6 110
e 6 190
e 7 11
e 7 13
e 7 17
e 7 19
e 7 20
e 7 34
e 7 36
e 7 59
e 7 76
e 7 97
e 7 201
e 8 21
e 8 31
e 8 40
e 8 50
e 8 53
e 8 83
e 8 96
e 8 110
e 8 190
e 9 11
e 9 12
e 9 15
e 9 17
e 9 34
e 9 35
e 9 46
e 9 51
e 9 71
e 9 125
e 10 21
e 10 31
e 10 33
e 10 40
e 10 50
e 10 52
e 10 81
e 10 96
e 10 114
e 10 122
e 11 12
e 11 13
e 11 17
e 11 20
e 11 34
e 11 36
e 11 76
e 11 97
e 12 15
e 12 17
e 12 20
e 12 34
e 12 35
e 12 46
e 12 71
e 12 125
e 13 17
e 13 19
e 13 20
e 13 34
e 13 36
e 13 76
e 13 97
e 13 128
e 14 18
e 14 42
e 14 44
e 14 51
e 14 55
e 14 58
e 14 75
e 14 88
e 14 137
e 14 154
e 14 187
e 15 20
e 15 35
e 15 45
e 15 46
e 15 72
e 15 125
e 15 158
e 16 22
e 16 23
e 16 24
e 16 26
e 16 27
e 16 38
e 16 39
e 16 54
e 16 82
e 16 85
e 16 90
e 17 20
e 17 34
e 17 51
e 17 154
e 18 42
e 18 44
e 18 51
e 18 55
e 18 58
e 18 75
e 18 88
e 18 137
e 18 154
e 18 187
e 19 32
e 19 36
e 19 59
e 19 76
e 19 97
e 19 128
e 19 153
e 19 156
e 19 164
e 20 34
e 20 35
e 20 36
e 21 31
e 21 40
e 21 50
e 21 53
e 21 81
e 21 96
e 22 23
e 22 24
e 22 26
e 22 27
e 22 38
e 22 54
e 22 82
e 22 85
e 22 90
e 22 188
e 23 24
e 23 26
e 23 27
e 23 38
e 23 39
e 23 54
e 23 82
e 23 85
e 23 90
e 24 26
e 24 27
e 24 38
e 24 39
e 24 54
e 24 82
e 24 85
e 24 90
e 25 28
e 25 30
e 25 63
e 25 65
e 25 66
e 25 92
e 25 93
e 25 101
e 25 120
e 25 145
e 25 178
e 26 27
e 26 38
e 26 54
e 26 82
e 26 85
e 26 90
e 26 188
e 27 37
e 27 38
e 27 39
e 27 54
e 27 90
e 27 155
e 28 30
e 28 63
e 28 65
e 28 92
e 28 93
e 28 101
e 28 103
e 28 141
e 28 178
e 29 84
e 29 91
e 29 113
e 29 118
e 29 132
e 29 151
e 29 161
e 29 165
e 29 183
e 29 224
e 30 63
e 30 65
e 30 92
e 30 93
e 30 101
e 30 103
e 30 141
e 30 178
e 31 33
e 31 52
e 31 96
e 31 142
e 32 37
e 32 39
e 32 59
e 32 89
e 32 128
e 32 153
e 32 155
e 32 156
e 32 164
e 33 52
e 33 96
e 33 114
e 33 122
e 33 142
e 33 217
e 34 154
e 35 45
e 35 46
e 35 72
e 35 125
e 36 59
e 36 128
e 36 156
e 37 39
e 37 67
e 37 80
e 37 89
e 37 112
e 37 116
e 37 155
e 37 197
e 38 39
e 38 82
e 38 85
e 38 155
e 39 90
e 39 155
e 39 164
e 40 50
e 40 81
e 40 145
e 41 47
e 41 77
e 41 79
e 41 95
e 41 111
e 41 127
e 41 130
e 41 163
e 41 179
e 42 44
e 42 55
e 42 58
e 42 88
e 42 106
e 42 177
e 42 187
e 43 48
e 43 61
e 43 66
e 43 68
e 43 70
e 43 99
e 43 105
e 43 120
e 43 175
e 44 55
e 44 58
e 44 88
e 44 106
e 44 137
e 44 187
e 45 46
e 45 72
e 45 125
e 45 126
e 45 158
e 45 184
e 45 193
e 46 71
e 46 125
e 47 74
e 47 77
e 47 79
e 47 95
e 47 111
e 47 130
e 47 170
e 47 179
e 48 61
e 48 66
e 48 68
e 48 70
e 48 99
e 48 119
e 48 140
e 48 175
e 49 56
e 49 57
e 49 60
e 49 62
e 49 86
e 49 98
e 49 133
e 49 176
e 50 53
e 50 81
e 50 115
e 51 71
e 51 75
e 51 137
e 51 154
e 51 167
e 52 114
e 52 122
e 52 142
e 52 210
e 53 73
e 53 83
e 53 110
e 53 115
e 53 131
e 54 90
e 54 188
e 54 219
e 55 58
e 55 88
e 55 100
e 55 106
e 55 137
e 56 57
e 56 60
e 56 62
e 56 86
e 56 133
e 56 135
e 56 176
e 57 60
e 57 62
e 57 86
e 57 133
e 57 135
e 57 200
e 58 88
e 58 100
e 58 106
e 58 177
e 59 76
e 59 97
e 59 128
e 59 153
e 59 156
e 60 62
e 60 86
e 60 98
e 60 133
e 60 214
e 61 68
e 61 70
e 61 99
e 61 119
e 61 140
e 61 159
e 61 175
e 62 86
e 62 176
e 62 202
e 63 65
e 63 93
e 63 101
e 63 103
e 63 141
e 64 87
e 64 98
e 64 102
e 64 104
e 64 107
e 64 121
e 64 124
e 64 134
e 65 92
e 65 93
e 65 141
e 65 157
e 66 68
e 66 70
e 66 99
e 66 120
e 66 145
e 67 80
e 67 89
e 67 112
e 67 116
e 67 146
e 67 194
e 67 197
e 68 70
e 68 99
e 68 119
e 68 159
e 69 105
e 69 108
e 69 120
e 69 123
e 69 127
e 69 149
e 69 162
e 69 189
e 70 73
e 70 99
e 70 115
e 71 75
e 71 94
e 71 125
e 71 167
e 72 158
e 72 193
e 72 205
e 72 216
e 72 218
e 73 83
e 73 99
e 73 115
e 73 131
e 73 159
e 73 213
e 74 77
e 74 79
e 74 95
e 74 129
e 74 130
e 74 170
e 74 196
e 75 94
e 75 117
e 75 137
e 75 167
e 76 97
e 76 143
e 76 201
e 77 79
e 77 95
e 77 111
e 77 130
e 77 170
e 78 108
e 78 109
e 78 144
e 78 163
e 78 169
e 78 180
e 78 212
e 78 223
e 79 95
e 79 111
e 79 130
e 79 170
e 80 89
e 80 112
e 80 116
e 80 146
e 80 194
e 80 197
e 81 145
e 82 85
e 82 103
e 83 110
e 83 115
e 83 131
e 83 213
e 84 91
e 84 118
e 84 132
e 84 151
e 84 161
e 84 165
e 84 183
e 85 103
e 86 133
e 86 176
e 87 98
e 87 102
e 87 104
e 87 107
e 87 121
e 87 124
e 87 134
e 88 106
e 88 177
e 89 112
e 89 116
e 89 146
e 89 153
e 91 113
e 91 118
e 91 132
e 91 151
e 91 161
e 91 165
e 92 93
e 92 120
e 92 149
e 92 157
e 93 141
e 93 157
e 94 117
e 94 167
e 94 168
e 94 185
e 94 206
e 94 208
e 95 129
e 95 130
e 95 170
e 97 143
e 97 201
e 98 102
e 98 104
e 98 133
e 98 214
e 99 115
e 100 143
e 100 150
e 100 160
e 100 166
e 100 181
e 100 199
e 101 103
e 101 145
e 101 178
e 102 104
e 102 107
e 102 121
e 102 134
e 103 141
e 104 107
e 104 121
e 104 134
e 105 123
e 105 149
e 105 162
e 105 175
e 105 189
e 106 177
e 106 181
e 107 121
e 107 124
e 107 134
e 108 123
e 108 127
e 108 144
e 108 163
e 108 169
e 109 144
e 109 169
e 109 180
e 109 184
e 109 205
e 109 212
e 110 131
e 110 148
e 110 190
e 111 127
e 111 162
e 111 179
e 112 116
e 112 146
e 112 197
e 113 132
e 113 136
e 113 172
e 113 198
e 113 211
e 114 122
e 114 210
e 115 131
e 116 146
e 116 153
e 117 167
e 117 168
e 117 185
e 117 206
e 117 208
e 118 151
e 118 161
e 118 165
e 118 183
e 119 140
e 119 159
e 119 221
e 119 226
e 120 149
e 120 189
e 121 124
e 121 134
e 122 142
e 122 210
e 123 127
e 123 149
e 123 162
e 123 189
e 124 134
e 124 207
e 124 228
e 126 136
e 126 158
e 126 172
e 126 184
e 126 193
e 126 198
e 127 162
e 127 179
e 128 156
e 128 164
e 129 186
e 129 195
e 129 196
e 129 203
e 129 204
e 130 163
e 131 159
e 131 213
e 132 136
e 132 182
e 132 220
e 133 214
e 135 171
e 135 191
e 135 192
e 135 200
e 136 172
e 136 182
e 136 198
e 136 211
e 137 154
e 138 139
e 138 147
e 138 148
e 138 152
e 138 173
e 138 174
e 138 215
e 139 147
e 139 152
e 139 173
e 139 174
e 139 215
e 140 175
e 140 221
e 140 226
e 142 207
e 142 217
e 143 166
e 143 199
e 143 201
e 144 157
e 144 169
e 144 180
e 145 178
e 146 194
e 147 148
e 147 152
e 147 173
e 147 174
e 148 152
e 148 173
e 148 190
e 149 189
e 150 160
e 150 166
e 150 199
e 150 209
e 150 227
e 151 161
e 151 165
e 152 173
e 152 174
e 153 233
e 155 164
e 156 164
e 157 169
e 157 180
e 158 184
e 158 193
e 159 213
e 160 166
e 160 181
e 160 209
e 160 227
e 161 165
e 162 179
e 163 212
e 163 223
e 166 181
e 166 199
e 167 168
e 168 185
e 168 206
e 168 208
e 169 180
e 170 234
e 171 191
e 171 192
e 171 200
e 171 229
e 172 183
e 172 198
e 172 224
e 173 190
e 174 215
e 177 181
e 182 211
e 182 220
e 182 225
e 183 224
e 184 193
e 185 187
e 185 208
e 186 195
e 186 196
e 186 203
e 186 204
e 188 219
e 188 222
e 191 192
e 191 202
e 192 202
e 194 229
e 194 231
e 195 196
e 195 203
e 195 204
e 196 203
e 197 232
e 198 211
e 199 201
e 200 232
e 204 234
e 205 216
e 205 218
e 206 225
e 207 217
e 207 228
e 209 227
e 209 230
e 210 222
e 212 223
e 214 219
e 216 218
e 220 225
e 221 226
e 222 228
e 229 231
e 230 233
